50
54.0
0 49 99.0 1.08
1 48 99.0 1.1
2 47 99.0 1.1
3 46 99.0 1.1
4 45 99.0 1.1
5 44 99.0 1.1
6 43 99.0 1.1
7 42 99.0 1.1
8 41 99.0 1.1
9 40 99.0 1.1
10 39 99.0 1.1
11 38 99.0 1.1
12 37 99.0 1.1
13 36 99.0 1.1
14 35 99.0 1.1
15 34 99.0 1.1
16 33 99.0 1.1
17 32 99.0 1.1
18 31 99.0 1.1
19 30 99.0 1.1
20 29 99.0 1.1
21 28 99.0 1.1
22 27 99.0 1.1
23 26 99.0 1.1
24 25 99.0 1.1
25 24 99.0 1.1
26 23 99.0 1.1
27 22 99.0 1.1
28 21 99.0 1.1
29 20 99.0 1.1
30 19 99.0 1.1
31 18 99.0 1.1
32 17 99.0 1.1
33 16 99.0 1.1
34 15 99.0 1.1
35 14 99.0 1.1
36 13 99.0 1.1
37 12 99.0 1.1
38 11 99.0 1.1
39 10 99.0 1.1
40 9 99.0 1.1
41 8 99.0 1.1
42 7 99.0 1.1
43 6 99.0 1.1
44 5 99.0 1.1
45 4 99.0 1.1
46 3 99.0 1.1
47 2 99.0 1.1
48 1 99.0 1.1
